40
    43    56    37    79     6    72     1    20    15    34    71    69    61    91    39    90    62    48    77    51    65    60    31    23    44    39    28    79     3    46    73    96    72    99    48    56    10    66    13    40
     1    10     3     7     3     7     7     3     5     2     4     3     8     2     6     8     4     7     2    10     3     6     9     8     3     2     3     8    10     4     9     1     9     9     9     3     3     7     6    10
  1056  1538  1837  1610  1103  1848  1441  1934  1860  1421  2026  1948  1602  1425  1406  1502  1642  2039  1501  1472  1393  2113  1295  1910  1267  1838  1246  2010  1360  1208  1058  1876  1937  1486  1682  1281  2119  1245  1888  1436
